logs/drand/max/drand-05-110-0.lp
\ LP format - for model browsing. Use MPS format to capture full model detail.
Maximize
  x0,1_13 + x0,1_37 + x0,1_44 + x0,1_93 + x0,1_102 + x0,2_13 + x0,2_37
   + x0,2_44 + x0,2_93 + x0,2_102 + x0,3_13 + x0,3_37 + x0,3_44 + x0,3_93
   + x0,3_102 + x0,4_13 + x0,4_37 + x0,4_44 + x0,4_93 + x0,4_102 + x0,5_13
   + x0,5_37 + x0,5_44 + x0,5_93 + x0,5_102 + x1,2_13 + x1,2_37 + x1,2_44
   + x1,2_93 + x1,2_102 + x1,3_13 + x1,3_37 + x1,3_44 + x1,3_93 + x1,3_102
   + x1,4_13 + x1,4_37 + x1,4_44 + x1,4_93 + x1,4_102 + x1,5_13 + x1,5_37
   + x1,5_44 + x1,5_93 + x1,5_102 + x2,3_13 + x2,3_37 + x2,3_44 + x2,3_93
   + x2,3_102 + x2,4_13 + x2,4_37 + x2,4_44 + x2,4_93 + x2,4_102 + x2,5_13
   + x2,5_37 + x2,5_44 + x2,5_93 + x2,5_102 + x3,4_13 + x3,4_37 + x3,4_44
   + x3,4_93 + x3,4_102 + x3,5_13 + x3,5_37 + x3,5_44 + x3,5_93 + x3,5_102
   + x4,5_13 + x4,5_37 + x4,5_44 + x4,5_93 + x4,5_102
Subject To
 R0: x0,1_13 + x0,2_13 + x0,3_13 + x0,4_13 + x0,5_13 + x1,2_13 + x1,3_13
   + x1,4_13 + x1,5_13 + x2,3_13 + x2,4_13 + x2,5_13 + x3,4_13 + x3,5_13
   + x4,5_13 <= 1
 R1: x0,1_37 + x0,2_37 + x0,3_37 + x0,4_37 + x0,5_37 + x1,2_37 + x1,3_37
   + x1,4_37 + x1,5_37 + x2,3_37 + x2,4_37 + x2,5_37 + x3,4_37 + x3,5_37
   + x4,5_37 <= 1
 R2: x0,1_44 + x0,2_44 + x0,3_44 + x0,4_44 + x0,5_44 + x1,2_44 + x1,3_44
   + x1,4_44 + x1,5_44 + x2,3_44 + x2,4_44 + x2,5_44 + x3,4_44 + x3,5_44
   + x4,5_44 <= 1
 R3: x0,1_93 + x0,2_93 + x0,3_93 + x0,4_93 + x0,5_93 + x1,2_93 + x1,3_93
   + x1,4_93 + x1,5_93 + x2,3_93 + x2,4_93 + x2,5_93 + x3,4_93 + x3,5_93
   + x4,5_93 <= 1
 R4: x0,1_102 + x0,2_102 + x0,3_102 + x0,4_102 + x0,5_102 + x1,2_102
   + x1,3_102 + x1,4_102 + x1,5_102 + x2,3_102 + x2,4_102 + x2,5_102
   + x3,4_102 + x3,5_102 + x4,5_102 <= 1
 R5: x0,1_13 + x0,1_37 + x0,1_44 + x0,1_93 + x0,1_102 <= 1
 R6: x0,2_13 + x0,2_37 + x0,2_44 + x0,2_93 + x0,2_102 <= 1
 R7: x0,3_13 + x0,3_37 + x0,3_44 + x0,3_93 + x0,3_102 <= 1
 R8: x0,4_13 + x0,4_37 + x0,4_44 + x0,4_93 + x0,4_102 <= 1
 R9: x0,5_13 + x0,5_37 + x0,5_44 + x0,5_93 + x0,5_102 <= 1
 R10: x1,2_13 + x1,2_37 + x1,2_44 + x1,2_93 + x1,2_102 <= 1
 R11: x1,3_13 + x1,3_37 + x1,3_44 + x1,3_93 + x1,3_102 <= 1
 R12: x1,4_13 + x1,4_37 + x1,4_44 + x1,4_93 + x1,4_102 <= 1
 R13: x1,5_13 + x1,5_37 + x1,5_44 + x1,5_93 + x1,5_102 <= 1
 R14: x2,3_13 + x2,3_37 + x2,3_44 + x2,3_93 + x2,3_102 <= 1
 R15: x2,4_13 + x2,4_37 + x2,4_44 + x2,4_93 + x2,4_102 <= 1
 R16: x2,5_13 + x2,5_37 + x2,5_44 + x2,5_93 + x2,5_102 <= 1
 R17: x3,4_13 + x3,4_37 + x3,4_44 + x3,4_93 + x3,4_102 <= 1
 R18: x3,5_13 + x3,5_37 + x3,5_44 + x3,5_93 + x3,5_102 <= 1
 R19: x4,5_13 + x4,5_37 + x4,5_44 + x4,5_93 + x4,5_102 <= 1
 R20: p0 - p1 <= -1
 R21: - 13 x0,1_13 - p0 + p1 >= 0
 R22: 289 x0,1_13 - p0 + p1 <= 302
 R23: - 37 x0,1_37 - p0 + p1 >= 0
 R24: 289 x0,1_37 - p0 + p1 <= 326
 R25: - 44 x0,1_44 - p0 + p1 >= 0
 R26: 289 x0,1_44 - p0 + p1 <= 333
 R27: - 93 x0,1_93 - p0 + p1 >= 0
 R28: 289 x0,1_93 - p0 + p1 <= 382
 R29: - 102 x0,1_102 - p0 + p1 >= 0
 R30: 289 x0,1_102 - p0 + p1 <= 391
 R31: p0 - p2 <= -1
 R32: - 13 x0,2_13 - p0 + p2 >= 0
 R33: 289 x0,2_13 - p0 + p2 <= 302
 R34: - 37 x0,2_37 - p0 + p2 >= 0
 R35: 289 x0,2_37 - p0 + p2 <= 326
 R36: - 44 x0,2_44 - p0 + p2 >= 0
 R37: 289 x0,2_44 - p0 + p2 <= 333
 R38: - 93 x0,2_93 - p0 + p2 >= 0
 R39: 289 x0,2_93 - p0 + p2 <= 382
 R40: - 102 x0,2_102 - p0 + p2 >= 0
 R41: 289 x0,2_102 - p0 + p2 <= 391
 R42: p0 - p3 <= -1
 R43: - 13 x0,3_13 - p0 + p3 >= 0
 R44: 289 x0,3_13 - p0 + p3 <= 302
 R45: - 37 x0,3_37 - p0 + p3 >= 0
 R46: 289 x0,3_37 - p0 + p3 <= 326
 R47: - 44 x0,3_44 - p0 + p3 >= 0
 R48: 289 x0,3_44 - p0 + p3 <= 333
 R49: - 93 x0,3_93 - p0 + p3 >= 0
 R50: 289 x0,3_93 - p0 + p3 <= 382
 R51: - 102 x0,3_102 - p0 + p3 >= 0
 R52: 289 x0,3_102 - p0 + p3 <= 391
 R53: p0 - p4 <= -1
 R54: - 13 x0,4_13 - p0 + p4 >= 0
 R55: 289 x0,4_13 - p0 + p4 <= 302
 R56: - 37 x0,4_37 - p0 + p4 >= 0
 R57: 289 x0,4_37 - p0 + p4 <= 326
 R58: - 44 x0,4_44 - p0 + p4 >= 0
 R59: 289 x0,4_44 - p0 + p4 <= 333
 R60: - 93 x0,4_93 - p0 + p4 >= 0
 R61: 289 x0,4_93 - p0 + p4 <= 382
 R62: - 102 x0,4_102 - p0 + p4 >= 0
 R63: 289 x0,4_102 - p0 + p4 <= 391
 R64: p0 - p5 <= -1
 R65: - 13 x0,5_13 - p0 + p5 >= 0
 R66: 289 x0,5_13 - p0 + p5 <= 302
 R67: - 37 x0,5_37 - p0 + p5 >= 0
 R68: 289 x0,5_37 - p0 + p5 <= 326
 R69: - 44 x0,5_44 - p0 + p5 >= 0
 R70: 289 x0,5_44 - p0 + p5 <= 333
 R71: - 93 x0,5_93 - p0 + p5 >= 0
 R72: 289 x0,5_93 - p0 + p5 <= 382
 R73: - 102 x0,5_102 - p0 + p5 >= 0
 R74: 289 x0,5_102 - p0 + p5 <= 391
 R75: p1 - p2 <= -1
 R76: - 13 x1,2_13 - p1 + p2 >= 0
 R77: 289 x1,2_13 - p1 + p2 <= 302
 R78: - 37 x1,2_37 - p1 + p2 >= 0
 R79: 289 x1,2_37 - p1 + p2 <= 326
 R80: - 44 x1,2_44 - p1 + p2 >= 0
 R81: 289 x1,2_44 - p1 + p2 <= 333
 R82: - 93 x1,2_93 - p1 + p2 >= 0
 R83: 289 x1,2_93 - p1 + p2 <= 382
 R84: - 102 x1,2_102 - p1 + p2 >= 0
 R85: 289 x1,2_102 - p1 + p2 <= 391
 R86: p1 - p3 <= -1
 R87: - 13 x1,3_13 - p1 + p3 >= 0
 R88: 289 x1,3_13 - p1 + p3 <= 302
 R89: - 37 x1,3_37 - p1 + p3 >= 0
 R90: 289 x1,3_37 - p1 + p3 <= 326
 R91: - 44 x1,3_44 - p1 + p3 >= 0
 R92: 289 x1,3_44 - p1 + p3 <= 333
 R93: - 93 x1,3_93 - p1 + p3 >= 0
 R94: 289 x1,3_93 - p1 + p3 <= 382
 R95: - 102 x1,3_102 - p1 + p3 >= 0
 R96: 289 x1,3_102 - p1 + p3 <= 391
 R97: p1 - p4 <= -1
 R98: - 13 x1,4_13 - p1 + p4 >= 0
 R99: 289 x1,4_13 - p1 + p4 <= 302
 R100: - 37 x1,4_37 - p1 + p4 >= 0
 R101: 289 x1,4_37 - p1 + p4 <= 326
 R102: - 44 x1,4_44 - p1 + p4 >= 0
 R103: 289 x1,4_44 - p1 + p4 <= 333
 R104: - 93 x1,4_93 - p1 + p4 >= 0
 R105: 289 x1,4_93 - p1 + p4 <= 382
 R106: - 102 x1,4_102 - p1 + p4 >= 0
 R107: 289 x1,4_102 - p1 + p4 <= 391
 R108: p1 - p5 <= -1
 R109: - 13 x1,5_13 - p1 + p5 >= 0
 R110: 289 x1,5_13 - p1 + p5 <= 302
 R111: - 37 x1,5_37 - p1 + p5 >= 0
 R112: 289 x1,5_37 - p1 + p5 <= 326
 R113: - 44 x1,5_44 - p1 + p5 >= 0
 R114: 289 x1,5_44 - p1 + p5 <= 333
 R115: - 93 x1,5_93 - p1 + p5 >= 0
 R116: 289 x1,5_93 - p1 + p5 <= 382
 R117: - 102 x1,5_102 - p1 + p5 >= 0
 R118: 289 x1,5_102 - p1 + p5 <= 391
 R119: p2 - p3 <= -1
 R120: - 13 x2,3_13 - p2 + p3 >= 0
 R121: 289 x2,3_13 - p2 + p3 <= 302
 R122: - 37 x2,3_37 - p2 + p3 >= 0
 R123: 289 x2,3_37 - p2 + p3 <= 326
 R124: - 44 x2,3_44 - p2 + p3 >= 0
 R125: 289 x2,3_44 - p2 + p3 <= 333
 R126: - 93 x2,3_93 - p2 + p3 >= 0
 R127: 289 x2,3_93 - p2 + p3 <= 382
 R128: - 102 x2,3_102 - p2 + p3 >= 0
 R129: 289 x2,3_102 - p2 + p3 <= 391
 R130: p2 - p4 <= -1
 R131: - 13 x2,4_13 - p2 + p4 >= 0
 R132: 289 x2,4_13 - p2 + p4 <= 302
 R133: - 37 x2,4_37 - p2 + p4 >= 0
 R134: 289 x2,4_37 - p2 + p4 <= 326
 R135: - 44 x2,4_44 - p2 + p4 >= 0
 R136: 289 x2,4_44 - p2 + p4 <= 333
 R137: - 93 x2,4_93 - p2 + p4 >= 0
 R138: 289 x2,4_93 - p2 + p4 <= 382
 R139: - 102 x2,4_102 - p2 + p4 >= 0
 R140: 289 x2,4_102 - p2 + p4 <= 391
 R141: p2 - p5 <= -1
 R142: - 13 x2,5_13 - p2 + p5 >= 0
 R143: 289 x2,5_13 - p2 + p5 <= 302
 R144: - 37 x2,5_37 - p2 + p5 >= 0
 R145: 289 x2,5_37 - p2 + p5 <= 326
 R146: - 44 x2,5_44 - p2 + p5 >= 0
 R147: 289 x2,5_44 - p2 + p5 <= 333
 R148: - 93 x2,5_93 - p2 + p5 >= 0
 R149: 289 x2,5_93 - p2 + p5 <= 382
 R150: - 102 x2,5_102 - p2 + p5 >= 0
 R151: 289 x2,5_102 - p2 + p5 <= 391
 R152: p3 - p4 <= -1
 R153: - 13 x3,4_13 - p3 + p4 >= 0
 R154: 289 x3,4_13 - p3 + p4 <= 302
 R155: - 37 x3,4_37 - p3 + p4 >= 0
 R156: 289 x3,4_37 - p3 + p4 <= 326
 R157: - 44 x3,4_44 - p3 + p4 >= 0
 R158: 289 x3,4_44 - p3 + p4 <= 333
 R159: - 93 x3,4_93 - p3 + p4 >= 0
 R160: 289 x3,4_93 - p3 + p4 <= 382
 R161: - 102 x3,4_102 - p3 + p4 >= 0
 R162: 289 x3,4_102 - p3 + p4 <= 391
 R163: p3 - p5 <= -1
 R164: - 13 x3,5_13 - p3 + p5 >= 0
 R165: 289 x3,5_13 - p3 + p5 <= 302
 R166: - 37 x3,5_37 - p3 + p5 >= 0
 R167: 289 x3,5_37 - p3 + p5 <= 326
 R168: - 44 x3,5_44 - p3 + p5 >= 0
 R169: 289 x3,5_44 - p3 + p5 <= 333
 R170: - 93 x3,5_93 - p3 + p5 >= 0
 R171: 289 x3,5_93 - p3 + p5 <= 382
 R172: - 102 x3,5_102 - p3 + p5 >= 0
 R173: 289 x3,5_102 - p3 + p5 <= 391
 R174: p4 - p5 <= -1
 R175: - 13 x4,5_13 - p4 + p5 >= 0
 R176: 289 x4,5_13 - p4 + p5 <= 302
 R177: - 37 x4,5_37 - p4 + p5 >= 0
 R178: 289 x4,5_37 - p4 + p5 <= 326
 R179: - 44 x4,5_44 - p4 + p5 >= 0
 R180: 289 x4,5_44 - p4 + p5 <= 333
 R181: - 93 x4,5_93 - p4 + p5 >= 0
 R182: 289 x4,5_93 - p4 + p5 <= 382
 R183: - 102 x4,5_102 - p4 + p5 >= 0
 R184: 289 x4,5_102 - p4 + p5 <= 391
Bounds
Binaries
 x0,1_13 x0,1_37 x0,1_44 x0,1_93 x0,1_102 x0,2_13 x0,2_37 x0,2_44 x0,2_93
 x0,2_102 x0,3_13 x0,3_37 x0,3_44 x0,3_93 x0,3_102 x0,4_13 x0,4_37 x0,4_44
 x0,4_93 x0,4_102 x0,5_13 x0,5_37 x0,5_44 x0,5_93 x0,5_102 x1,2_13 x1,2_37
 x1,2_44 x1,2_93 x1,2_102 x1,3_13 x1,3_37 x1,3_44 x1,3_93 x1,3_102 x1,4_13
 x1,4_37 x1,4_44 x1,4_93 x1,4_102 x1,5_13 x1,5_37 x1,5_44 x1,5_93 x1,5_102
 x2,3_13 x2,3_37 x2,3_44 x2,3_93 x2,3_102 x2,4_13 x2,4_37 x2,4_44 x2,4_93
 x2,4_102 x2,5_13 x2,5_37 x2,5_44 x2,5_93 x2,5_102 x3,4_13 x3,4_37 x3,4_44
 x3,4_93 x3,4_102 x3,5_13 x3,5_37 x3,5_44 x3,5_93 x3,5_102 x4,5_13 x4,5_37
 x4,5_44 x4,5_93 x4,5_102
Generals
 p0 p1 p2 p3 p4 p5
End
