logs/drand/max/drand-05-110-0.sol
# Objective value = 5
x0,1_13 0
x0,1_37 0
x0,1_44 0
x0,1_93 0
x0,1_102 0
x0,2_13 0
x0,2_37 0
x0,2_44 0
x0,2_93 0
x0,2_102 0
x0,3_13 0
x0,3_37 1
x0,3_44 0
x0,3_93 0
x0,3_102 0
x0,4_13 0
x0,4_37 0
x0,4_44 0
x0,4_93 0
x0,4_102 0
x0,5_13 0
x0,5_37 0
x0,5_44 0
x0,5_93 0
x0,5_102 0
x1,2_13 0
x1,2_37 0
x1,2_44 0
x1,2_93 0
x1,2_102 0
x1,3_13 0
x1,3_37 0
x1,3_44 0
x1,3_93 0
x1,3_102 0
x1,4_13 0
x1,4_37 0
x1,4_44 1
x1,4_93 0
x1,4_102 0
x1,5_13 0
x1,5_37 0
x1,5_44 0
x1,5_93 0
x1,5_102 0
x2,3_13 1
x2,3_37 0
x2,3_44 0
x2,3_93 0
x2,3_102 0
x2,4_13 0
x2,4_37 0
x2,4_44 0
x2,4_93 0
x2,4_102 0
x2,5_13 0
x2,5_37 0
x2,5_44 0
x2,5_93 0
x2,5_102 0
x3,4_13 0
x3,4_37 0
x3,4_44 0
x3,4_93 0
x3,4_102 0
x3,5_13 0
x3,5_37 0
x3,5_44 0
x3,5_93 0
x3,5_102 1
x4,5_13 0
x4,5_37 0
x4,5_44 0
x4,5_93 1
x4,5_102 0
p0 0
p1 2
p2 24
p3 37
p4 46
p5 139
